============================[ Problem Statistics ]=============================|                                                                             ||  Number of variables:          4242                                         ||  Number of clauses:           10456                                         ||  Parse time:                   0.84 s                                       ||                                                                             |============================[ Search Statistics ]==============================| Conflicts |          ORIGINAL         |          LEARNT          | Progress ||           |    Vars  Clauses Literals |    Limit  Clauses Lit/Cl |          |===============================================================================|       100 |    1591     6661  1345052 |     2442      100     53 | 62.501 % ||       250 |    1591     6661  1345052 |     2686      250     75 | 62.495 % |===============================================================================restarts              : 4conflicts             : 454            (358 /sec)decisions             : 815            (0.00 % random) (643 /sec)propagations          : 13755          (10856 /sec)conflict literals     : 38511          (94.45 % deleted)CPU time              : 1.267 sSATISFIABLE